output_file = "9-2-CE-80-2.00-785.csv";

n_days = 80;
n_shelf_types = 2;
n_crops = 2;

num_shelves = [
    6, 3
];


crop_shelf_type_compatible = [
    [1, 1],
[1, 1]
];

crop_growth_days = [15, 35];

n_configurations = 6;

crop_growth_day_config = [
    [1, 1, 1, 2, 2, 2, 2, 2, 2, 2, 2, 2, 2, 2, 2, -1, -1, -1, -1, -1, -1, -1, -1, -1, -1, -1, -1, -1, -1, -1, -1, -1, -1, -1, -1],
[3, 3, 3, 3, 3, 3, 3, 4, 4, 4, 4, 4, 4, 4, 4, 4, 4, 5, 5, 5, 5, 5, 5, 5, 5, 5, 5, 5, 5, 5, 5, 6, 6, 6, 6]
];

capacity = [
    [12, 12, 12, 12, 12, 12],
[12, 12, 12, 12, 12, 12]
];

demand = [
    [0, 0, 0, 0, 0, 0, 0, 0, 0, 0, 0, 0, 0, 0, 0, 4, 0, 0, 0, 0, 0, 0, 4, 0, 0, 0, 8, 0, 0, 0, 4, 0, 8, 0, 4, 0, 0, 0, 0, 0, 0, 2, 4, 0, 0, 0, 0, 10, 0, 0, 0, 0, 0, 6, 0, 0, 0, 4, 0, 0, 10, 0, 2, 0, 6, 0, 8, 14, 0, 0, 0, 0, 6, 0, 0, 6, 0, 0, 0, 0],
[0, 0, 0, 0, 0, 0, 0, 0, 0, 0, 0, 0, 0, 0, 0, 0, 0, 0, 0, 0, 0, 0, 0, 0, 0, 0, 0, 0, 0, 0, 0, 0, 0, 0, 0, 4, 4, 0, 0, 0, 0, 2, 0, 0, 0, 6, 0, 8, 0, 0, 4, 2, 6, 0, 6, 0, 6, 0, 8, 0, 8, 8, 0, 0, 0, 0, 0, 16, 0, 0, 0, 0, 6, 0, 0, 0, 0, 0, 0, 0]
];
